c generated by sgen3tocnf
c nLits = 621
c actual nVars = 207
c Command: sgen3tocnf 70 34 0 0 210 3 1 0 /dev/null
p cnf 210 277
-1 -124 0
-1 -205 0
-124 -205 0
-115 -121 0
-115 -172 0
-121 -172 0
-46 -64 0
-46 -70 0
-64 -70 0
-79 -208 0
-79 -88 0
-208 -88 0
-91 -76 0
-91 -82 0
-76 -82 0
-169 -133 0
-169 -4 0
-133 -4 0
-184 -40 0
-184 -178 0
-40 -178 0
-151 -145 0
-151 -139 0
-145 -139 0
-206 -19 0
-206 -49 0
-19 -49 0
-106 -175 0
-106 -148 0
-175 -148 0
-71 -202 0
-71 -100 0
-202 -100 0
-163 -31 0
-163 -92 0
-31 -92 0
-52 -93 0
-52 -170 0
-93 -170 0
-134 -53 0
-134 -47 0
-53 -47 0
-187 -37 0
-187 -85 0
-37 -85 0
-199 -116 0
-199 -16 0
-116 -16 0
-118 -188 0
-118 -77 0
-188 -77 0
-17 -94 0
-17 -54 0
-94 -54 0
-181 -149 0
-181 -209 0
-149 -209 0
-65 -112 0
-65 -117 0
-112 -117 0
-10 -80 0
-10 -32 0
-80 -32 0
-55 -173 0
-55 -61 0
-173 -61 0
-150 -62 0
-150 -25 0
-62 -25 0
-154 -58 0
-154 -193 0
-58 -193 0
-109 -26 0
-109 -107 0
-26 -107 0
-38 -196 0
-38 -135 0
-196 -135 0
-50 -200 0
-50 -11 0
-200 -11 0
-157 -7 0
-157 -22 0
-7 -22 0
-146 -171 0
-146 -67 0
-171 -67 0
-28 -207 0
-28 -95 0
-207 -95 0
-43 -13 0
-43 -185 0
-13 -185 0
-20 -155 0
-20 -41 0
-155 -41 0
-8 -108 0
-8 -44 0
-108 -44 0
-176 -3 0
-176 -34 0
-3 -34 0
-24 -35 0
-24 -103 0
-35 -103 0
-174 -127 0
-174 -177 0
-127 -177 0
-179 -166 0
-179 -182 0
-166 -182 0
-104 -56 0
-104 -190 0
-56 -190 0
-167 -72 0
-167 -21 0
-72 -21 0
-197 -101 0
-197 -59 0
-101 -59 0
-5 -186 0
-5 -9 0
-186 -9 0
-130 -110 0
-130 -113 0
-110 -113 0
-27 -131 0
-27 -57 0
-131 -57 0
-68 -48 0
-68 -160 0
-48 -160 0
-136 -164 0
-136 -39 0
-164 -39 0
-89 -141 0
-89 -156 0
-141 -156 0
-142 -12 0
-142 -152 0
-12 -152 0
-86 -97 0
-86 -14 0
-97 -14 0
-78 -183 0
-78 -98 0
-183 -98 0
-99 -105 0
-99 -122 0
-105 -122 0
-15 -153 0
-15 -125 0
-153 -125 0
-36 -83 0
-36 -147 0
-83 -147 0
-42 -87 0
-42 -132 0
-87 -132 0
-191 -6 0
-191 -29 0
-6 -29 0
-161 -158 0
-161 -81 0
-158 -81 0
-194 -192 0
-194 -203 0
-192 -203 0
-123 -162 0
-123 -165 0
-162 -165 0
-84 -195 0
-84 -189 0
-195 -189 0
-96 -137 0
-96 -159 0
-137 -159 0
-60 -69 0
-60 -111 0
-69 -111 0
-210 -119 0
-210 -198 0
-119 -198 0
-204 -143 0
-204 -128 0
-143 -128 0
-126 -90 0
-126 -73 0
-90 -73 0
-129 -180 0
-129 -201 0
-180 -201 0
-63 -45 0
-63 -138 0
-45 -138 0
-102 -30 0
-102 -66 0
-30 -66 0
-114 -18 0
-114 -120 0
-18 -120 0
-74 -51 0
-74 -168 0
-51 -168 0
-33 -75 0
-33 -144 0
-75 -144 0
1 3 0
5 6 4 0
8 7 9 0
10 12 11 0
15 13 14 0
17 18 16 0
20 19 21 0
24 22 0
27 26 25 0
28 30 29 0
33 31 32 0
36 35 34 0
38 37 39 0
42 40 41 0
43 45 44 0
46 48 47 0
50 51 49 0
52 53 54 0
55 56 57 0
60 58 59 0
63 62 61 0
65 64 66 0
68 69 67 0
71 72 70 0
74 75 73 0
78 76 77 0
79 80 81 0
84 83 82 0
86 87 85 0
89 90 88 0
91 93 92 0
96 94 95 0
99 97 98 0
102 101 100 0
104 105 103 0
106 108 107 0
109 110 111 0
114 112 113 0
115 116 117 0
118 119 120 0
123 121 122 0
126 124 125 0
129 127 128 0
130 131 132 0
134 133 135 0
136 137 138 0
141 139 0
142 143 144 0
146 145 147 0
150 149 148 0
151 153 152 0
154 155 156 0
157 158 159 0
161 162 160 0
163 164 165 0
167 166 168 0
169 171 170 0
174 173 172 0
176 175 177 0
179 180 178 0
181 183 182 0
184 186 185 0
187 188 189 0
191 192 190 0
194 195 193 0
197 196 198 0
199 200 201 0
204 202 203 0
206 207 205 0
210 208 209 0
